(set-info :status unknown)
(declare-fun C2 () (_ BitVec 28))
(declare-fun %X () (_ BitVec 28))
(declare-fun C1 () (_ BitVec 28))
(assert
 (let ((?x4559 (bvor %X C2)))
 (let (($x3969 (and (distinct (ite (= (ite (= (bvand %X C1) (_ bv0 28)) (_ bv1 1) (_ bv0 1)) (_ bv1 1)) ?x4559 %X) ?x4559) true)))
 (and (and (and (distinct C1 (_ bv0 28)) true) (= (bvand C1 (bvsub C1 (_ bv1 28))) (_ bv0 28))) (= C1 C2) $x3969))))
(check-sat)
